SCIP Status        : solving was interrupted [time limit reached]
Total Time         :    3600.00
  solving          :    3600.00
  presolving       :       0.37 (included in solving)
  reading          :       0.00
  copying          :       2.83 (66 #copies) (minimal 0.00, maximal 0.14, average 0.04)
Original Problem   :
  Problem name     : bbbenchmark/g05_100.3.cut
  Variables        : 101 (100 binary, 0 integer, 0 implicit integer, 1 continuous)
  Constraints      : 1 initial, 1 maximal
  Objective        : minimize, 1 non-zeros (abs.min = 1, abs.max = 1)
Presolved Problem  :
  Problem name     : t_bbbenchmark/g05_100.3.cut
  Variables        : 1898 (100 binary, 0 integer, 1784 implicit integer, 14 continuous)
  Constraints      : 1824 initial, 11825 maximal
  Objective        : minimize, 1 non-zeros (abs.min = 1, abs.max = 1)
  Nonzeros         : 8697 constraint, 202 clique table
Presolvers         :   ExecTime  SetupTime  Calls  FixedVars   AggrVars   ChgTypes  ChgBounds   AddHoles    DelCons    AddCons   ChgSides   ChgCoefs
  boundshift       :       0.00       0.00      0          0          0          0          0          0          0          0          0          0
  convertinttobin  :       0.00       0.00      0          0          0          0          0          0          0          0          0          0
  domcol           :       0.00       0.00      1          0          0          0          0          0          0          0          0          0
  dualagg          :       0.00       0.00      0          0          0          0          0          0          0          0          0          0
  dualcomp         :       0.00       0.00      1          0          0          0          0          0          0          0          0          0
  dualinfer        :       0.00       0.00      0          0          0          0          0          0          0          0          0          0
  dualsparsify     :       0.00       0.00      1          0          0          0          0          0          0          0          0          0
  gateextraction   :       0.00       0.00      0          0          0          0          0          0          0          0          0          0
  implics          :       0.00       0.00      2          0          0          0          0          0          0          0          0          0
  inttobinary      :       0.00       0.00      0          0          0          0          0          0          0          0          0          0
  qpkktref         :       0.00       0.00      0          0          0          0          0          0          0          0          0          0
  redvub           :       0.00       0.00      0          0          0          0          0          0          0          0          0          0
  sparsify         :       0.00       0.00      1          0          0          0          0          0          0          0          0          0
  stuffing         :       0.00       0.00      0          0          0          0          0          0          0          0          0          0
  trivial          :       0.00       0.00      4          0          0          0          0          0          0          0          0          0
  tworowbnd        :       0.00       0.00      0          0          0          0          0          0          0          0          0          0
  dualfix          :       0.00       0.00      4          0          0          0          0          0          0          0          0          0
  genvbounds       :       0.00       0.00      0          0          0          0          0          0          0          0          0          0
  probing          :       0.31       0.00      1          0          0          0          0          0          0          0          0          0
  pseudoobj        :       0.00       0.00      1          0          0          0          1          0          0          0          0          0
  symmetry         :       0.00       0.00      0          0          0          0          0          0          0          0          0          0
  vbounds          :       0.00       0.00      1          0          0          0          0          0          0          0          0          0
  varbound         :       0.00       0.00      2          0          0          0          0          0          0          0          0          0
  and              :       0.00       0.00      2          0          0          0          0          0          0          0          0          0
  linear           :       0.00       0.00      2          0          0          0          0          0          0          0          0          0
  logicor          :       0.00       0.00      0          0          0          0          0          0          0          0          0          0
  bounddisjunction :       0.00       0.00      0          0          0          0          0          0          0          0          0          0
  nonlinear        :       0.06       0.00      5          0          0          0          1          0          0       1823          0          0
  benders          :       0.00       0.00      0          0          0          0          0          0          0          0          0          0
  components       :       0.00       0.00      1          0          0          0          0          0          0          0          0          0
  root node        :          -          -      -          0          -          -         14          -          -          -          -          -
Constraints        :     Number  MaxNumber  #Separate #Propagate    #EnfoLP    #EnfoRelax  #EnfoPS    #Check   #ResProp    Cutoffs    DomReds       Cuts    Applied      Conss   Children
  benderslp        :          0          0          0          0     117198          0          0      11358          0          0          0          0          0          0          0
  integral         :          0          0          0          0     117198          0          0      11358          0          0       2100          0          0       1024     232502
  varbound         :         13         13        151     676863          0          0          0         41          0          0      36204          0          0          0          0
  and              :       1784       1784     134274     847839          4          0          0         41     557130          3    2351410       3378       3337          0          0
  linear           :         27+        35        151     847887          4          0          0         39        855         16     439783          0          0          0          0
  logicor          :          0+      9584          0     154655          0          0          0          0        132        699         46          0          0          0          0
  bounddisjunction :          0+       851          0      57693          0          0          0          0          2         32          0          0          0          0          0
  benders          :          0          0          0          0          4          0          0         29          0          0          0          0          0          0          0
  countsols        :          0          0          0          0          4          0          0         29          0          0          0          0          0          0          0
  components       :          0          0          0          0          0          0          0          0          0          0          0          0          0          0          0
Constraint Timings :  TotalTime  SetupTime   Separate  Propagate     EnfoLP     EnfoPS     EnfoRelax   Check    ResProp    SB-Prop
  benderslp        :       0.13       0.00       0.00       0.00       0.13       0.00       0.00       0.00       0.00       0.00
  integral         :      74.07       0.00       0.00       0.00      74.05       0.00       0.00       0.02       0.00       0.00
  varbound         :       0.72       0.00       0.00       0.71       0.00       0.00       0.00       0.00       0.00       0.01
  and              :     134.11       0.00      90.90      42.11       0.00       0.00       0.00       0.04       0.37       0.69
  linear           :       5.06       0.00       0.13       4.85       0.00       0.00       0.00       0.00       0.00       0.08
  logicor          :      12.75       0.00       0.00      12.72       0.00       0.00       0.00       0.00       0.01       0.02
  bounddisjunction :       1.19       0.00       0.00       1.19       0.00       0.00       0.00       0.00       0.00       0.00
  benders          :       0.00       0.00       0.00       0.00       0.00       0.00       0.00       0.00       0.00       0.00
  countsols        :       0.00       0.00       0.00       0.00       0.00       0.00       0.00       0.00       0.00       0.00
  components       :       0.18       0.00       0.00       0.18       0.00       0.00       0.00       0.00       0.00       0.00
Propagators        : #Propagate   #ResProp    Cutoffs    DomReds
  dualfix          :          4          0          0          0
  genvbounds       :          0          0          0          0
  nlobbt           :          0          0          0          0
  obbt             :          0          0          0          0
  probing          :          0          0          0          0
  pseudoobj        :     483849          0          0         36
  redcost          :     267419          0          0     214567
  rootredcost      :         19          0          0          0
  symmetry         :          0          0          0          0
  vbounds          :     107478          0          0          0
Propagator Timings :  TotalTime  SetupTime   Presolve  Propagate    ResProp    SB-Prop
  dualfix          :       0.00       0.00       0.00       0.00       0.00       0.00
  genvbounds       :       0.53       0.00       0.00       0.53       0.00       0.00
  nlobbt           :       0.00       0.00       0.00       0.00       0.00       0.00
  obbt             :       0.00       0.00       0.00       0.00       0.00       0.00
  probing          :       0.31       0.00       0.31       0.00       0.00       0.00
  pseudoobj        :       1.02       0.00       0.00       1.02       0.00       0.00
  redcost          :      18.15       0.00       0.00      18.15       0.00       0.00
  rootredcost      :       0.71       0.00       0.00       0.71       0.00       0.00
  symmetry         :       0.39       0.00       0.00       0.38       0.00       0.01
  vbounds          :       0.66       0.00       0.00       0.65       0.00       0.01
Conflict Analysis  :       Time      Calls    Success    DomReds  Conflicts   Literals    Reconvs ReconvLits   Dualrays   Nonzeros   LP Iters   (pool size: [10000,10000])
  propagation      :       0.00        734        568          -        688       64.1          0        0.0          -          -          -
  infeasible LP    :       0.09         44         44          -       1815      142.5          0        0.0         55      208.4          0
  bound exceed. LP :      24.34       9554       7560          -     164351      104.6          0        0.0          0        0.0      59969
  strong branching :       0.00          0          0          -          0        0.0          0        0.0          -          -          0
  pseudo solution  :       0.00          0          0          -          0        0.0          0        0.0          -          -          -
  applied globally :       0.65          -          -          0      41069      113.7          -          -         55          -          -
  applied locally  :          -          -          -          0          0        0.0          -          -          0          -          -
Separators         :   ExecTime  SetupTime      Calls  RootCalls    Cutoffs    DomReds  FoundCuts ViaPoolAdd  DirectAdd    Applied ViaPoolApp  DirectApp      Conss
  cut pool         :       7.91          -      29724        179          -          -      33162    2057317          -          -          -          -          -    (maximal pool size:       3822)
  aggregation      :      62.34       0.00       4386        151          0          0         24         18          0          6          6          0          0
  > cmir           :          -          -          -          -          -          -          -         18          0          6          6          0          -
  > flowcover      :          -          -          -          -          -          -          -          0          0          0          0          0          -
  > knapsackcover  :          -          -          -          -          -          -          -          0          0          0          0          0          -
  cgmip            :       0.00       0.00          0          0          0          0          0          0          0          0          0          0          0
  clique           :       0.00       0.00        151        151          0          0          0          0          0          0          0          0          0
  closecuts        :       0.00       0.00          0          0          0          0          0          0          0          0          0          0          0
  convexproj       :       0.00       0.00          0          0          0          0          0          0          0          0          0          0          0
  disjunctive      :       0.00       0.00          0          0          0          0          0          0          0          0          0          0          0
  eccuts           :       0.00       0.00          0          0          0          0          0          0          0          0          0          0          0
  gauge            :       0.00       0.00          0          0          0          0          0          0          0          0          0          0          0
  gomory           :       0.00       0.00          0          0          0          0          0          0          0          0          0          0          0
  > gomorymi       :          -          -          -          -          -          -          -          0          0          0          0          0          -
  > strongcg       :          -          -          -          -          -          -          -          0          0          0          0          0          -
  impliedbounds    :       0.31       0.00       4386        151          0          0          7          0          0          0          0          0          0
  interlattice     :       1.05       0.00        125        125          0          0        125          0        125        123          0        123          0
  interminor       :       0.00       0.00          0          0          0          0          0          0          0          0          0          0          0
  intersub         :       0.19       0.00          3          3          0          0          2          0          2          2          0          2          0
  intobj           :       0.00       0.00          0          0          0          0          0          0          0          0          0          0          0
  mcf              :       0.01       0.00          1          1          0          0          0          0          0          0          0          0          0
  minor            :       0.03       0.00          0          0          0          0          0          0          0          0          0          0          0
  mixing           :       0.04       0.00       4386        151          0          0          0          0          0          0          0          0          0
  oddcycle         :       0.00       0.00          0          0          0          0          0          0          0          0          0          0          0
  rapidlearning    :       0.01       0.00          0          0          0          0          0          0          0          0          0          0          0
  rlt              :       0.00       0.00         10         10          0          0          0          0          0          0          0          0          0
  zerohalf         :      37.19       0.00       3940         20          0          0      33131    2057299          0     178037     178037          0          0
Cutselectors       :   ExecTime  SetupTime      Calls  RootCalls   Selected     Forced   Filtered  RootSelec   RootForc   RootFilt 
  hybrid           :       2.12       0.00      19028        152     181505          0    1879317        318          0         41
Pricers            :   ExecTime  SetupTime      Calls       Vars
  problem variables:       0.00          -          0          0
Branching Rules    :   ExecTime  SetupTime   BranchLP  BranchExt   BranchPS    Cutoffs    DomReds       Cuts      Conss   Children
  allfullstrong    :       0.00       0.00          0          0          0          0          0          0          0          0
  cloud            :       0.00       0.00          0          0          0          0          0          0          0          0
  distribution     :       0.00       0.00          0          0          0          0          0          0          0          0
  fullstrong       :       0.00       0.00          0          0          0          0          0          0          0          0
  inference        :       0.00       0.00          0          0          0          0          0          0          0          0
  leastinf         :       0.00       0.00          0          0          0          0          0          0          0          0
  lookahead        :       0.00       0.00          0          0          0          0          0          0          0          0
  mostinf          :       0.00       0.00          0          0          0          0          0          0          0          0
  multaggr         :       0.00       0.00          0          0          0          0          0          0          0          0
  nodereopt        :       0.00       0.00          0          0          0          0          0          0          0          0
  pscost           :       0.00       0.00          0          0          0          0          0          0          0          0
  random           :       0.00       0.00          0          0          0          0          0          0          0          0
  relpscost        :      73.66       0.00     117194          0          0          0       2100          0       1128     232502
  vanillafullstrong:       0.00       0.00          0          0          0          0          0          0          0          0
Primal Heuristics  :   ExecTime  SetupTime      Calls      Found       Best
  LP solutions     :       0.07          -          -          4          4
  relax solutions  :       0.00          -          -          0          0
  pseudo solutions :       0.00          -          -          0          0
  strong branching :       0.03          -          -          0          0
  actconsdiving    :       0.00       0.00          0          0          0
  adaptivediving   :      14.42       0.00        113          1          1
  alns             :       4.24       0.00         29          6          6
  bound            :       0.00       0.00          0          0          0
  clique           :       0.02       0.00          1          0          0
  coefdiving       :       0.00       0.00          0          0          0
  completesol      :       0.00       0.00          0          0          0
  conflictdiving   :     161.33       0.00       1489          1          1
  crossover        :       1.39       0.00          5          1          1
  dins             :       0.00       0.00          0          0          0
  distributiondivin:      85.56       0.00        450          1          1
  dps              :       0.00       0.00          0          0          0
  dualval          :       0.00       0.00          0          0          0
  farkasdiving     :       0.03       0.00          0          0          0
  feaspump         :       0.34       0.00          1          1          1
  fixandinfer      :       0.00       0.00          0          0          0
  fracdiving       :      59.88       0.00        603          0          0
  gins             :       0.15       0.00          0          0          0
  guideddiving     :      61.76       0.00        602          1          1
  indicator        :       0.08       0.00          0          0          0
  indicatordiving  :       0.00       0.00          0          0          0
  intdiving        :       0.00       0.00          0          0          0
  intshifting      :       0.68       0.00         99          0          0
  linesearchdiving :      62.78       0.00        592          0          0
  localbranching   :       0.00       0.00          0          0          0
  locks            :       0.01       0.00          1          0          0
  lpface           :       0.12       0.00          0          0          0
  mpec             :     123.52       0.00         11          2          2
  multistart       :       0.00       0.00          0          0          0
  mutation         :       0.00       0.00          0          0          0
  nlpdiving        :      15.64       0.00          1          0          0
  objpscostdiving  :      60.96       0.00         74          3          1
  octane           :       0.00       0.00          0          0          0
  ofins            :       0.17       0.00          0          0          0
  oneopt           :       0.12       0.00         23          0          0
  padm             :       0.00       0.00          0          0          0
  proximity        :       0.00       0.00          0          0          0
  pscostdiving     :      63.17       0.00        498          2          2
  randrounding     :       1.48       0.00      11326          0          0
  rens             :       0.00       0.00          0          0          0
  reoptsols        :       0.00       0.00          0          0          0
  repair           :       0.00       0.00          0          0          0
  rins             :       7.75       0.00         32          1          1
  rootsoldiving    :      42.26       0.00         47          1          0
  rounding         :       1.90       0.00       5027          0          0
  shiftandpropagate:       0.00       0.00          0          0          0
  shifting         :      47.58       0.00       9784          2          2
  simplerounding   :       0.20       0.00          0          0          0
  subnlp           :     194.38       0.00          0          0          0
  trivial          :       0.00       0.00          2          2          2
  trivialnegation  :       0.00       0.00          0          0          0
  trustregion      :       0.00       0.00          0          0          0
  trysol           :       0.14       0.00          0          0          0
  twoopt           :       0.00       0.00          0          0          0
  undercover       :       1.55       0.00          1          1          1
  vbounds          :       0.00       0.00          0          0          0
  veclendiving     :      62.09       0.00        602          0          0
  zeroobj          :       0.00       0.00          0          0          0
  zirounding       :       0.45       0.00       1000          0          0
  other solutions  :          -          -          -          0          -
Diving (single)    :      Calls      Nodes   LP Iters Backtracks  Conflicts   MinDepth   MaxDepth   AvgDepth  RoundSols  NLeafSols  MinSolDpt  MaxSolDpt  AvgSolDpt
  actconsdiving    :          0          -          -          -          -          -          -          -          -          -          -          -          -
  coefdiving       :          0          -          -          -          -          -          -          -          -          -          -          -          -
  conflictdiving   :       1489      61086    1757515       1607      68292         52         90       64.7          0          1         90         90       90.0
  distributiondivin:        450      15937     685682        493       7103         50         67       57.4          0          1         63         63       63.0
  farkasdiving     :          0          -          -          -          -          -          -          -          -          -          -          -          -
  fracdiving       :        603      47660     630251        272       4475         57        532      102.6          0          -          -          -          -
  guideddiving     :        602      45519     667730        335       7072         57        226       99.3          0          1         97         97       97.0
  indicatordiving  :          0          -          -          -          -          -          -          -          -          -          -          -          -
  linesearchdiving :        592      22182     668329        583      28512         45         96       59.6          0          -          -          -          -
  pscostdiving     :        498      22376     695895        522      12561         57         84       67.2          0          2         72         84       78.0
  veclendiving     :        602      23916     663959        570      29218         54         85       62.4          0          -          -          -          -
Diving (adaptive)  :      Calls      Nodes   LP Iters Backtracks  Conflicts   MinDepth   MaxDepth   AvgDepth  RoundSols  NLeafSols  MinSolDpt  MaxSolDpt  AvgSolDpt
  actconsdiving    :         14        521      18067         14        141         55         66       60.1          0          -          -          -          -
  coefdiving       :         42       1732      51325         32       2196         52         90       62.1          0          -          -          -          -
  conflictdiving   :          0          -          -          -          -          -          -          -          -          -          -          -          -
  distributiondivin:          0          -          -          -          -          -          -          -          -          -          -          -          -
  farkasdiving     :          0          -          -          -          -          -          -          -          -          -          -          -          -
  fracdiving       :          4        444       4875          1          7         78        183      131.2          0          -          -          -          -
  guideddiving     :          6        490       8032          4         97         75        134      101.7          0          1        103        103      103.0
  indicatordiving  :          0          -          -          -          -          -          -          -          -          -          -          -          -
  linesearchdiving :         21        900      27308         15       1019         50         82       61.5          0          -          -          -          -
  pscostdiving     :          9        401      12317          9        194         61         70       66.8          0          -          -          -          -
  veclendiving     :         17        703      18911         14        853         55         87       65.1          0          -          -          -          -
Neighborhoods      :      Calls  SetupTime  SolveTime SolveNodes       Sols       Best       Exp3  EpsGreedy        UCB TgtFixRate  Opt  Inf Node Stal  Sol  Usr Othr Actv
  rens             :          1       0.00       0.00          0          0          0    0.00000   -1.00000    0.07377      0.900    0    0    0    0    0    0    1    1
  rins             :         12       1.21       0.59        701          4          4    0.00000   -1.00000    0.53700      0.832    2    4    0    6    0    0    0    1
  mutation         :          2       0.10       0.06         38          0          0    0.00000   -1.00000    0.50625      0.550    0    2    0    0    0    0    0    1
  localbranching   :          2       0.11       0.13         92          0          0    0.00000   -1.00000    0.45578      0.850    0    1    0    1    0    0    0    1
  crossover        :          6       0.46       0.70        364          2          2    0.00000   -1.00000    0.47425      0.506    1    3    0    2    0    0    0    1
  proximity        :          2       0.10       0.14         65          0          0    0.00000   -1.00000    0.47031      0.850    0    1    0    1    0    0    0    1
  zeroobjective    :          2       0.09       0.08        124          0          0    0.00000   -1.00000    0.45216      0.850    0    1    0    1    0    0    0    1
  dins             :          2       0.14       0.09        143          0          0    0.00000   -1.00000    0.44666      0.850    0    1    0    1    0    0    0    1
  trustregion      :          0       0.00       0.00          0          0          0    0.00000   -1.00000    1.00000      0.900    0    0    0    0    0    0    0    0
Expressions        :   #IntEval  IntEvalTi   #RevProp  RevPropTi    DomReds    Cutoffs  #Estimate  EstimTime  Branching  #Simplify SimplifyTi Simplified
  pow              :          0       0.00          0       0.00          0          0          0       0.00          0          0       0.00          0
  prod             :       9900       0.00          0       0.00          0          0          0       0.00          0       6734       0.00          0
  sum              :          8       0.00          2       0.00          0          0          0       0.00          0          3       0.01          2
  var              :       6503       0.00          0       0.00          0          0          0       0.00          0      15568       0.01          0
  varidx           :          0       0.00          0       0.00          0          0          0       0.00          0          0       0.00          0
LP                 :       Time      Calls Iterations  Iter/call   Iter/sec  Time-0-It Calls-0-It    ItLimit
  primal LP        :     108.34      14610          0       0.00       0.00     108.26      14610
  dual LP          :    1860.10     205518   13101323      68.41    7043.34       6.69      13996
  lex dual LP      :       0.00          0          0       0.00          -
  barrier LP       :       0.00          0          0       0.00          -       0.00          0
  resolve instable :       0.00          0          0       0.00          -
  diving/probing LP:     565.67      23306    6508065     279.24   11505.06
  strong branching :      27.90       2684     252004      93.89    9032.40          -          -        154
    (at root node) :          -         19       5386     283.47          -
  conflict analysis:       8.61       6123      59969       9.79    6965.04
NLP relaxation     :
  solve time       :      15.18 (8 calls)
  convexity        :  nonconvex (40 linear rows, 0 convex ineq., 0 nonconvex ineq., 1784 nonlinear eq. or two-sided ineq.)
NLP Solvers        :  #Problems  ProblemTi    #Solves  SolveTime      #Iter  Time/Iter      #Okay #TimeLimit #IterLimit #LObjLimit #Interrupt  #NumError #EvalError  #OutOfMem #LicenseEr #OtherTerm   #GlobOpt    #LocOpt  #Feasible #LocInfeas #GlobInfea #Unbounded   #Unknown
  ipopt            :         12       8.83         39     141.84       1913       0.07         37          0          2          0          0          0          0          0          0          0          0         28          0          9          0          0          2
B&B Tree           :
  number of runs   :          1
  nodes            :     171569 (116251 internal, 55318 leaves)
  feasible leaves  :          4
  infeas. leaves   :         16
  objective leaves :      55297
  nodes (total)    :     171569 (116251 internal, 55318 leaves)
  nodes left       :      60742
  max depth        :         71
  max depth (total):         71
  backtracks       :      32704 (19.1%)
  early backtracks :          0 (0.0%)
  nodes exc. ref.  :          0 (0.0%)
  delayed cutoffs  :          0
  repropagations   :         63 (300 domain reductions, 0 cutoffs)
  avg switch length:       5.36
  switching time   :     150.56
Estim. Tree Size   :     343522
Estimation Tree    : 232503 nodes (171761 visited, 116251 internal, 55510 leaves, 60742 open), weight: 0.0000 completed 0.1041
Estimations        :      estim      value      trend resolution     smooth
  wbe              : 1730847256504930          -          -          -          -
  tree-profile     :         -1          -          -          -          -
  gap              :    4683142    0.68201    0.00001         64    4668350
  tree-weight      :     343522    0.00000    0.00000         64     343309
  leaf-frequency   :     839940    0.32318    0.00003         64     836927
  ssg              :   26937527    0.83564   -0.00000         64   26763572
  open-nodes       :     343522 60742.00000   13.57939         64     343309
Root Node          :
  First LP value   : -1.00000000000000e+00
  First LP Iters   :       1667 (11113.33 Iter/sec)
  First LP Time    :       0.15
  Final Dual Bound : -9.41469692729810e-01
  Final Root Iters :       4391
  Root LP Estimate : -3.45542715322572e-01
Solution           :
  Solutions found  :         30 (27 improvements)
  First Solution   : +1.00000000000000e+05   (in run 1, after 0 nodes, 0.01 seconds, depth 0, found by <trivial>)
  Gap First Sol.   :   infinite
  Gap Last Sol.    :      46.78 %
  Primal Bound     : -5.65656565656564e-01   (in run 1, after 164692 nodes, 3355.78 seconds, depth 20, found by <alns>)
  Dual Bound       : -8.29390848223898e-01
  Gap              :      46.62 %
Integrals          :      Total       Avg%
  primal-dual      :  123013.31      34.17
  primal-ref       :          -          - (not evaluated)
  dual-ref         :          -          - (not evaluated)
